c Sudoku solution
p cnf 729 0
162 0
195 0
226 0
245 0
278 0
339 0
341 0
383 0
417 0
425 0
315 0
432 0
543 0
558 0
647 0
652 0
723 0
738 0
791 0
864 0
893 0
473 0
914 0
922 0
212 0
968 0
953 0
851 0
931 0
835 0
827 0
888 0
281 0
148 0
328 0
618 0
633 0
113 0
121 0
511 0
536 0
444 0
263 0
755 0
767 0
366 0
456 0
671 0
461 0
489 0
498 0
976 0
985 0
997 0
949 0
575 0
569 0
665 0
524 0
629 0
186 0
684 0
696 0
782 0
879 0
774 0
746 0
842 0
719 0
816 0
372 0
177 0
394 0
299 0
134 0
237 0
159 0
254 0
357 0
587 0
592 0
